Version identifier: 20.1.0.0 | 2020-11-10 | 9bedb6d68
CPXPARAM_Threads                                 1
CPXPARAM_TimeLimit                               7200
CPXPARAM_MIP_Tolerances_MIPGap                   0
Generic callback                                 0x60
1 of 1 MIP starts provided solutions.
MIP start 'm1' defined initial solution with objective 693.8331.
Tried aggregator 1 time.
Reduced MIP has 400501 rows, 400801 columns, and 1200800 nonzeros.
Reduced MIP has 800 binaries, 0 generals, 0 SOSs, and 0 indicators.
Presolve time = 0.40 sec. (379.65 ticks)
Probing time = 0.05 sec. (50.06 ticks)
Tried aggregator 1 time.
Reduced MIP has 400501 rows, 400801 columns, and 1200800 nonzeros.
Reduced MIP has 800 binaries, 0 generals, 0 SOSs, and 0 indicators.
Presolve time = 0.39 sec. (373.16 ticks)
Probing time = 0.05 sec. (50.06 ticks)
MIP emphasis: balance optimality and feasibility.
MIP search method: dynamic search.
Parallel mode: none, using 1 thread.
Root relaxation solution time = 0.13 sec. (154.23 ticks)

        Nodes                                         Cuts/
   Node  Left     Objective  IInf  Best Integer    Best Bound    ItCnt     Gap

*     0+    0                          693.8331     2716.0000           291.45%
      0     0      711.8732     4      693.8331     2716.0000        0  291.45%
      0     2      711.8732     4      693.8331      711.8731        0    2.60%
Elapsed time = 871.72 sec. (665329.21 ticks, tree = 0.01 MB, solutions = 1)
      1     3      702.6850     4      693.8331      711.8720    40284    2.60%
*     2     2      integral     0      698.8347      711.8720    44081    1.87%
      2     2      698.8347     0      698.8347      702.6849    44081    0.55%
      3     3      702.6278     9      698.8347      702.6845    45572    0.55%
      4     2        cutoff            698.8347      702.6277    46298    0.54%
      5     3      702.2439     7      698.8347      702.6277    49678    0.54%
      6     4      702.0614     8      698.8347      702.6277    56390    0.54%
      7     5      699.2544     2      698.8347      702.6277   109815    0.54%
*     8     4      integral     0      699.2334      702.6277   109884    0.49%
      9     3        cutoff            699.2334      702.6277   109996    0.49%
*    10     2      integral     0      701.7160      702.0614   113733    0.05%
Elapsed time = 1987.37 sec. (1331988.00 ticks, tree = 0.15 MB, solutions = 4)
     11     3      701.8830     8      701.7160      702.0613   122630    0.05%
     12     2        cutoff            701.7160      702.0613   127505    0.05%
     13     1        cutoff            701.7160      702.0613   143038    0.05%
     14     0        cutoff            701.7160      701.7160   143548    0.00%

User cuts applied:  19

Root node processing (before b&c):
  Real time             =  871.71 sec. (665287.64 ticks)
Sequential b&c:
  Real time             = 1341.94 sec. (818604.14 ticks)
                          ------------
Total (root+branch&cut) = 2213.65 sec. (1483891.78 ticks)
@Parameters: 
is_S_cut                                true
is_add_all_yinF                         true
is_start_value                          true
is_usercut                              true
is_visualization                        false
uc_only_rootnode                        false

data                                    Qi
fn                                      data/Qi/instance_500_800.csv
mode                                    ZLP
solver                                  cplex

p                                       2
r                                       10

EPS                                     1.0e-06
EPS_vio                                 1.0e-04
beta                                    0.10
gap                                     0.00
nodelimit                               Inf
timelimit                               7200.00


@PrintInfos
ItCnt: 143548
Current gap: 0.00 %
Termination Status: OPTIMAL
Primal Status: FEASIBLE_POINT
Solve Time: 2213.65 sec
Objective Value: 701.716020
Number of Nodes:     15

CutInfo: [phase] num / time (sec) 
ZLP             [phase1]     0 / 0.00 [rLC]     4 / 6.48 [rUC]     2 / 2.24 [sLC]     1 / 3.65 [sUC]    16 / 43.02 
OldSubmodular   [phase1]     0 / 0.00 [rLC]     0 / 0.00 [rUC]     0 / 0.00 [sLC]     0 / 0.00 [sUC]     0 / 0.00 
NewSubmodular   [phase1]     0 / 0.00 [rLC]     0 / 0.00 [rUC]     0 / 0.00 [sLC]     0 / 0.00 [sUC]     0 / 0.00 
PMP             [phase1]     0 / 0.00 [rLC]     5 / 3.39 [rUC]     2 / 1.07 [sLC]     4 / 2.63 [sUC]    28 / 28.53 
Separation Round: [phase1] 0  [rLC] 5  [rUC] 2  [sLC] 4  [sUC] 28
Root Best Bound 702.684931
Root Best Integer: 698.834747
Best Bound: 701.716020
Best Integer: 701.716020

